%Chk=/home/rotations/zhangf/gen_ncaa_params/gaussian_output/3-pyridyl-L-alanine.chk
#B3LYP/6-31G(d) em=GD3BJ Opt=ModRedundant

scan rotamers

0 1
C    1.706900  -0.048200  1.253100
N    1.533000  -0.154800  -1.154100
C    0.781700  0.065000  0.066400
C    -0.319700  -0.980800  0.180700
O    1.275900  0.102400  2.371500
N    3.034700  -0.321500  1.062200
C    3.923700  -0.430200  2.202500
C    0.900000  -0.100900  -2.366700
O    1.526000  -0.284000  -3.383500
C    -0.579700  0.187300  -2.433200
C    -1.652200  -0.300200  0.226100
C    -2.822800  -1.034600  0.329600
N    -4.054800  -0.482300  0.375300
C    -4.116400  0.865800  0.314500
C    -3.003200  1.684500  0.210300
C    -1.748300  1.086200  0.165500
H    2.525400  -0.348100  -1.109500
H    0.327500  1.080900  0.044400
H    -0.279800  -1.658700  -0.701100
H    -0.173700  -1.572800  1.111900
H    3.395700  -0.447600  0.125300
H    3.347900  -0.261600  3.140000
H    4.376600  -1.446700  2.223600
H    4.728700  0.333900  2.119300
H    -0.977800  0.326300  -1.403200
H    -0.750300  1.114700  -3.024500
H    -1.102200  -0.665900  -2.920800
H    -2.744300  -2.130800  0.377300
H    -5.107700  1.341300  0.349800
H    -3.109200  2.778400  0.164300
H    -0.841300  1.703000  0.083000


