%Chk=/home/rotations/zhangf/gen_ncaa_params/gaussian_output/L-homoleucine.chk
#B3LYP/6-31G(d) em=GD3BJ Opt=ModRedundant

scan rotamers

0 1
C    1.144000  -2.019300  -0.842500
N    -1.265500  -2.206300  -0.842500
C    -0.162800  -1.264700  -0.842500
C    -0.243100  -0.390000  0.401700
O    1.143900  -3.227300  -0.842500
N    2.329600  -1.334900  -0.842500
C    3.585300  -2.060100  -0.842500
C    -2.555900  -1.749200  -0.842500
O    -3.474500  -2.533600  -0.842500
C    -2.830700  -0.265400  -0.842500
C    -0.377000  1.069900  -0.010900
C    -0.457300  1.944500  1.233300
C    0.807600  1.766200  2.062600
C    -0.590400  3.404100  0.819100
H    -1.081100  -3.201300  -0.842500
H    -0.221500  -0.624900  -1.751300
H    -1.128900  -0.686800  1.006600
H    0.681600  -0.520900  1.007200
H    2.329700  -0.322900  -0.842500
H    3.382400  -3.154400  -0.842500
H    4.168300  -1.791400  -1.751800
H    4.168800  -1.791100  0.066300
H    -1.866800  0.291000  -0.842500
H    -3.413600  0.003400  -1.751800
H    -3.414200  0.003700  0.066300
H    0.508800  1.366700  -0.615900
H    -1.301700  1.200700  -0.616500
H    -1.342700  1.647600  1.838800
H    0.748900  2.405400  2.971800
H    0.904800  0.699500  2.365200
H    1.693000  2.063100  1.457000
H    -0.649100  4.044200  1.727700
H    -1.515100  3.534600  0.213600
H    0.295400  3.700000  0.213700


